c Random Network
p min 10 20
n 1 1
n 10 -1
c Transformed from a max-flow problem.
a 	 3	1	0	49	0
a 	 2	8	0	11	0
a 	 1	6	0	7	0
a 	 9	10	0	20	0
a 	 2	1	0	38	0
a 	 1	7	0	11	0
a 	 2	6	0	43	0
a 	 3	6	0	26	0
a 	 1	3	0	21	0
a 	 6	2	0	9	0
a 	 7	2	0	35	0
a 	 2	7	0	47	0
a 	 7	10	0	1	0
a 	 9	2	0	16	0
a 	 1	2	0	12	0
a 	 10	5	0	15	0
a 	 9	5	0	28	0
a 	 10	1	0	19	0
a 	 10	3	0	26	0
a 	 10	6	0	25	0
